(declare-fun var0 () String)
(assert (RegexIn var0 (RegexConcat (RegexPlus (RegexPlus (Str2Reg "k"))) (RegexConcat (RegexStar (RegexStar (Str2Reg "jj"))) (RegexConcat (RegexPlus (RegexStar (Str2Reg "ii"))) (RegexConcat (RegexPlus (RegexUnion (Str2Reg "gg") (Str2Reg "hhh"))) (RegexConcat (RegexPlus (RegexStar (Str2Reg "f"))) (RegexConcat (RegexUnion (RegexPlus (Str2Reg "d")) (RegexPlus (Str2Reg "e"))) (RegexConcat (RegexUnion (RegexUnion (Str2Reg "aaa") (Str2Reg "bbb")) (RegexStar (Str2Reg "c"))) (RegexConcat (RegexStar (RegexStar (Str2Reg "999"))) (RegexConcat (RegexStar (RegexPlus (Str2Reg "888"))) (RegexConcat (RegexUnion (RegexPlus (Str2Reg "55")) (RegexUnion (Str2Reg "6") (Str2Reg "777"))) (RegexConcat (RegexUnion (RegexUnion (Str2Reg "222") (Str2Reg "33")) (RegexStar (Str2Reg "444"))) (RegexConcat (RegexUnion (RegexUnion (Str2Reg "~~") (Str2Reg "00")) (RegexPlus (Str2Reg "11"))) (RegexConcat (RegexStar (RegexUnion (Str2Reg "||") (Str2Reg "}"))) (RegexConcat (RegexStar (RegexPlus (Str2Reg "{"))) (RegexConcat (RegexStar (RegexStar (Str2Reg "```"))) (RegexConcat (RegexUnion (RegexUnion (Str2Reg "]]") (Str2Reg "^")) (RegexPlus (Str2Reg "__"))) (RegexConcat (RegexUnion (RegexUnion (Str2Reg "???") (Str2Reg "@@@")) (RegexUnion (Str2Reg "[[") (Str2Reg "\\\\\\"))) (RegexConcat (RegexUnion (RegexStar (Str2Reg "===")) (RegexPlus (Str2Reg ">>"))) (RegexConcat (RegexStar (RegexUnion (Str2Reg ";;") (Str2Reg "<<"))) (RegexConcat (RegexPlus (RegexStar (Str2Reg ":::"))) (RegexConcat (RegexUnion (RegexUnion (Str2Reg "-") (Str2Reg ".")) (RegexPlus (Str2Reg "///"))) (RegexConcat (RegexUnion (RegexUnion (Str2Reg "***") (Str2Reg "+")) (RegexPlus (Str2Reg ",,,"))) (RegexConcat (RegexUnion (RegexUnion (Str2Reg "&") (Str2Reg "''")) (RegexUnion (Str2Reg "(((") (Str2Reg "))"))) (RegexConcat (RegexUnion (RegexUnion (Str2Reg "###") (Str2Reg "$")) (RegexStar (Str2Reg "%"))) (RegexConcat (RegexPlus (RegexStar (Str2Reg "\""))) (RegexConcat (RegexUnion (RegexUnion (Str2Reg "YY") (Str2Reg "ZZ")) (RegexPlus (Str2Reg "!!!"))) (RegexConcat (RegexUnion (RegexStar (Str2Reg "WWW")) (RegexStar (Str2Reg "XXX"))) (RegexConcat (RegexUnion (RegexUnion (Str2Reg "TTT") (Str2Reg "U")) (RegexStar (Str2Reg "VV"))) (RegexConcat (RegexStar (RegexStar (Str2Reg "SSS"))) (RegexConcat (RegexStar (RegexPlus (Str2Reg "R"))) (RegexConcat (RegexUnion (RegexStar (Str2Reg "PP")) (RegexPlus (Str2Reg "QQ"))) (RegexConcat (RegexPlus (RegexUnion (Str2Reg "NN") (Str2Reg "OOO"))) (RegexConcat (RegexStar (RegexUnion (Str2Reg "LL") (Str2Reg "MMM"))) (RegexConcat (RegexUnion (RegexUnion (Str2Reg "HHH") (Str2Reg "II")) (RegexUnion (Str2Reg "J") (Str2Reg "KK"))) (RegexConcat (RegexPlus (RegexStar (Str2Reg "G"))) (RegexConcat (RegexStar (RegexPlus (Str2Reg "F"))) (RegexConcat (RegexPlus (RegexPlus (Str2Reg "EE"))) (RegexConcat (RegexUnion (RegexPlus (Str2Reg "CC")) (RegexStar (Str2Reg "D"))) (RegexConcat (RegexStar (RegexStar (Str2Reg "B"))) (RegexConcat (RegexStar (RegexPlus (Str2Reg "AAA"))) (RegexConcat (RegexStar (RegexStar (Str2Reg "z"))) (RegexConcat (RegexUnion (RegexPlus (Str2Reg "xx")) (RegexStar (Str2Reg "y"))) (RegexConcat (RegexPlus (RegexUnion (Str2Reg "vvv") (Str2Reg "ww"))) (RegexConcat (RegexStar (RegexPlus (Str2Reg "u"))) (RegexConcat (RegexStar (RegexPlus (Str2Reg "ttt"))) (RegexConcat (RegexUnion (RegexPlus (Str2Reg "rr")) (RegexPlus (Str2Reg "sss"))) (RegexConcat (RegexUnion (RegexUnion (Str2Reg "n") (Str2Reg "o")) (RegexUnion (Str2Reg "ppp") (Str2Reg "q"))) (RegexConcat (RegexUnion (RegexStar (Str2Reg "lll")) (RegexPlus (Str2Reg "mm"))) (RegexConcat (RegexStar (RegexStar (Str2Reg "kk"))) (RegexConcat (RegexStar (RegexPlus (Str2Reg "j"))) (RegexConcat (RegexStar (RegexUnion (Str2Reg "hhh") (Str2Reg "iii"))) (RegexConcat (RegexStar (RegexStar (Str2Reg "ggg"))) (RegexConcat (RegexPlus (RegexPlus (Str2Reg "ff"))) (RegexConcat (RegexStar (RegexStar (Str2Reg "ee"))) (RegexConcat (RegexUnion (RegexUnion (Str2Reg "bb") (Str2Reg "c")) (RegexStar (Str2Reg "dd"))) (RegexConcat (RegexPlus (RegexUnion (Str2Reg "99") (Str2Reg "aa"))) (RegexConcat (RegexUnion (RegexUnion (Str2Reg "6") (Str2Reg "77")) (RegexPlus (Str2Reg "888"))) (RegexConcat (RegexStar (RegexStar (Str2Reg "5"))) (RegexConcat (RegexUnion (RegexPlus (Str2Reg "333")) (RegexStar (Str2Reg "444"))) (RegexConcat (RegexStar (RegexUnion (Str2Reg "1") (Str2Reg "222"))) (RegexPlus (RegexPlus (Str2Reg "000")))))))))))))))))))))))))))))))))))))))))))))))))))))))))))))))))
(assert (not (RegexIn var0 (RegexConcat (RegexStar (RegexUnion (Str2Reg "gg") (Str2Reg "hhh"))) (RegexConcat (RegexStar (RegexUnion (Str2Reg "eee") (Str2Reg "ff"))) (RegexConcat (RegexStar (RegexUnion (Str2Reg "cc") (Str2Reg "ddd"))) (RegexConcat (RegexPlus (RegexUnion (Str2Reg "aa") (Str2Reg "b"))) (RegexConcat (RegexPlus (RegexStar (Str2Reg "999"))) (RegexConcat (RegexStar (RegexStar (Str2Reg "88"))) (RegexConcat (RegexUnion (RegexPlus (Str2Reg "6")) (RegexPlus (Str2Reg "7"))) (RegexConcat (RegexStar (RegexUnion (Str2Reg "44") (Str2Reg "5"))) (RegexConcat (RegexUnion (RegexUnion (Str2Reg "00") (Str2Reg "111")) (RegexUnion (Str2Reg "2") (Str2Reg "3"))) (RegexConcat (RegexPlus (RegexUnion (Str2Reg "}}") (Str2Reg "~"))) (RegexConcat (RegexUnion (RegexUnion (Str2Reg "``") (Str2Reg "{")) (RegexStar (Str2Reg "||"))) (RegexConcat (RegexUnion (RegexStar (Str2Reg "]]")) (RegexUnion (Str2Reg "^^^") (Str2Reg "_"))) (RegexConcat (RegexUnion (RegexPlus (Str2Reg "[[[")) (RegexPlus (Str2Reg "\\\\\\"))) (RegexConcat (RegexUnion (RegexUnion (Str2Reg ">>>") (Str2Reg "??")) (RegexStar (Str2Reg "@@"))) (RegexConcat (RegexUnion (RegexUnion (Str2Reg ":") (Str2Reg ";;;")) (RegexUnion (Str2Reg "<") (Str2Reg "=="))) (RegexConcat (RegexStar (RegexUnion (Str2Reg ".") (Str2Reg "/"))) (RegexConcat (RegexPlus (RegexStar (Str2Reg "-"))) (RegexConcat (RegexPlus (RegexPlus (Str2Reg ",,,"))) (RegexConcat (RegexStar (RegexPlus (Str2Reg "++"))) (RegexConcat (RegexPlus (RegexPlus (Str2Reg "*"))) (RegexConcat (RegexPlus (RegexStar (Str2Reg "))"))) (RegexConcat (RegexPlus (RegexUnion (Str2Reg "'''") (Str2Reg "((("))) (RegexConcat (RegexUnion (RegexUnion (Str2Reg "###") (Str2Reg "$$")) (RegexUnion (Str2Reg "%%%") (Str2Reg "&&"))) (RegexConcat (RegexUnion (RegexPlus (Str2Reg "!!!")) (RegexStar (Str2Reg "\""))) (RegexConcat (RegexUnion (RegexPlus (Str2Reg "YYY")) (RegexPlus (Str2Reg "ZZ"))) (RegexConcat (RegexPlus (RegexStar (Str2Reg "XXX"))) (RegexConcat (RegexStar (RegexPlus (Str2Reg "WW"))) (RegexConcat (RegexStar (RegexPlus (Str2Reg "VVV"))) (RegexConcat (RegexStar (RegexStar (Str2Reg "UUU"))) (RegexConcat (RegexUnion (RegexPlus (Str2Reg "SSS")) (RegexPlus (Str2Reg "T"))) (RegexConcat (RegexUnion (RegexStar (Str2Reg "QQQ")) (RegexPlus (Str2Reg "RRR"))) (RegexConcat (RegexStar (RegexUnion (Str2Reg "O") (Str2Reg "PP"))) (RegexConcat (RegexStar (RegexUnion (Str2Reg "MM") (Str2Reg "NN"))) (RegexConcat (RegexUnion (RegexStar (Str2Reg "JJJ")) (RegexUnion (Str2Reg "K") (Str2Reg "L"))) (RegexConcat (RegexStar (RegexStar (Str2Reg "II"))) (RegexConcat (RegexPlus (RegexUnion (Str2Reg "G") (Str2Reg "HHH"))) (RegexConcat (RegexPlus (RegexUnion (Str2Reg "EEE") (Str2Reg "F"))) (RegexConcat (RegexStar (RegexPlus (Str2Reg "DD"))) (RegexConcat (RegexStar (RegexUnion (Str2Reg "BBB") (Str2Reg "CC"))) (RegexConcat (RegexPlus (RegexPlus (Str2Reg "A"))) (RegexConcat (RegexUnion (RegexPlus (Str2Reg "yyy")) (RegexPlus (Str2Reg "zzz"))) (RegexConcat (RegexUnion (RegexPlus (Str2Reg "www")) (RegexStar (Str2Reg "xxx"))) (RegexConcat (RegexStar (RegexUnion (Str2Reg "u") (Str2Reg "v"))) (RegexConcat (RegexPlus (RegexStar (Str2Reg "t"))) (RegexConcat (RegexPlus (RegexUnion (Str2Reg "rrr") (Str2Reg "ss"))) (RegexConcat (RegexPlus (RegexStar (Str2Reg "q"))) (RegexConcat (RegexUnion (RegexStar (Str2Reg "o")) (RegexPlus (Str2Reg "ppp"))) (RegexConcat (RegexUnion (RegexUnion (Str2Reg "ll") (Str2Reg "mmm")) (RegexPlus (Str2Reg "nn"))) (RegexConcat (RegexUnion (RegexStar (Str2Reg "jjj")) (RegexStar (Str2Reg "kk"))) (RegexConcat (RegexUnion (RegexPlus (Str2Reg "hh")) (RegexPlus (Str2Reg "ii"))) (RegexConcat (RegexUnion (RegexStar (Str2Reg "fff")) (RegexStar (Str2Reg "g"))) (RegexConcat (RegexPlus (RegexStar (Str2Reg "ee"))) (RegexConcat (RegexPlus (RegexStar (Str2Reg "ddd"))) (RegexConcat (RegexUnion (RegexStar (Str2Reg "aa")) (RegexUnion (Str2Reg "b") (Str2Reg "cc"))) (RegexConcat (RegexUnion (RegexPlus (Str2Reg "77")) (RegexUnion (Str2Reg "8") (Str2Reg "999"))) (RegexConcat (RegexPlus (RegexUnion (Str2Reg "55") (Str2Reg "6"))) (RegexConcat (RegexStar (RegexPlus (Str2Reg "4"))) (RegexConcat (RegexStar (RegexPlus (Str2Reg "333"))) (RegexConcat (RegexPlus (RegexPlus (Str2Reg "222"))) (RegexConcat (RegexStar (RegexPlus (Str2Reg "11"))) (RegexPlus (RegexPlus (Str2Reg "00"))))))))))))))))))))))))))))))))))))))))))))))))))))))))))))))))))
(check-sat)